n= 10 ; m = 6;

2	35	61	30	60   	2  	20  	57  	89  	20
16 	78  	86  	21  	46  	51  	49  	72  	41  	17
35	18	1	77	63	34	47	35	77	27
11 	32	28  	23  	51  	37  	36  	3   	57  	46
37 	47  	74  	51  	64  	68  	37 	35   	12  	24
35	18	1	77	63	34	47	35	77	27